c "84654.clq"
p edge 100 1344
e 1 17
e 1 18
e 1 19
e 1 20
e 1 21
e 1 22
e 1 23
e 1 24
e 1 26
e 1 27
e 1 29
e 1 31
e 1 40
e 1 41
e 1 45
e 1 49
e 1 57
e 1 59
e 1 60
e 1 63
e 1 65
e 1 67
e 1 71
e 1 81
e 1 97
e 2 17
e 2 18
e 2 25
e 2 27
e 2 30
e 2 32
e 2 41
e 2 47
e 2 48
e 2 50
e 2 53
e 2 64
e 2 65
e 2 82
e 2 89
e 2 97
e 2 100
e 3 17
e 3 18
e 3 19
e 3 20
e 3 21
e 3 22
e 3 23
e 3 24
e 3 25
e 3 26
e 3 27
e 3 29
e 3 32
e 3 33
e 3 40
e 3 42
e 3 43
e 3 49
e 3 55
e 3 56
e 3 61
e 3 70
e 3 76
e 3 77
e 3 81
e 3 89
e 3 95
e 4 17
e 4 18
e 4 19
e 4 20
e 4 21
e 4 23
e 4 24
e 4 25
e 4 26
e 4 28
e 4 33
e 4 35
e 4 36
e 4 46
e 4 48
e 4 50
e 4 52
e 4 53
e 4 54
e 4 55
e 4 61
e 4 65
e 4 66
e 4 70
e 4 73
e 4 82
e 4 83
e 4 89
e 4 97
e 5 17
e 5 18
e 5 19
e 5 20
e 5 21
e 5 22
e 5 23
e 5 25
e 5 26
e 5 27
e 5 28
e 5 29
e 5 30
e 5 31
e 5 32
e 5 33
e 5 38
e 5 39
e 5 40
e 5 44
e 5 46
e 5 49
e 5 51
e 5 54
e 5 65
e 5 69
e 5 75
e 5 76
e 5 77
e 5 78
e 5 79
e 5 88
e 5 93
e 5 94
e 6 17
e 6 18
e 6 19
e 6 20
e 6 21
e 6 22
e 6 23
e 6 28
e 6 31
e 6 34
e 6 36
e 6 37
e 6 38
e 6 40
e 6 41
e 6 42
e 6 43
e 6 54
e 6 58
e 6 66
e 6 77
e 6 78
e 6 85
e 6 86
e 6 92
e 6 96
e 6 99
e 7 17
e 7 18
e 7 19
e 7 20
e 7 21
e 7 22
e 7 23
e 7 25
e 7 27
e 7 28
e 7 30
e 7 34
e 7 42
e 7 44
e 7 47
e 7 54
e 7 56
e 7 59
e 7 60
e 7 64
e 7 69
e 7 72
e 7 73
e 7 81
e 7 95
e 7 98
e 8 17
e 8 18
e 8 19
e 8 20
e 8 21
e 8 23
e 8 24
e 8 28
e 8 31
e 8 32
e 8 33
e 8 41
e 8 42
e 8 43
e 8 48
e 8 50
e 8 61
e 8 63
e 8 76
e 8 84
e 8 89
e 8 94
e 8 95
e 9 17
e 9 18
e 9 19
e 9 20
e 9 22
e 9 23
e 9 24
e 9 26
e 9 28
e 9 29
e 9 31
e 9 32
e 9 33
e 9 37
e 9 38
e 9 39
e 9 41
e 9 42
e 9 45
e 9 50
e 9 53
e 9 78
e 9 86
e 9 91
e 9 96
e 9 97
e 10 17
e 10 18
e 10 19
e 10 21
e 10 22
e 10 23
e 10 26
e 10 30
e 10 34
e 10 35
e 10 38
e 10 39
e 10 43
e 10 45
e 10 47
e 10 50
e 10 53
e 10 59
e 10 60
e 10 64
e 10 66
e 10 67
e 10 78
e 10 80
e 10 81
e 10 87
e 10 91
e 10 94
e 10 96
e 11 17
e 11 18
e 11 19
e 11 20
e 11 25
e 11 60
e 11 76
e 11 82
e 11 96
e 11 99
e 12 17
e 12 18
e 12 19
e 12 20
e 12 21
e 12 22
e 12 24
e 12 26
e 12 30
e 12 32
e 12 33
e 12 34
e 12 35
e 12 46
e 12 51
e 12 59
e 12 64
e 12 67
e 12 69
e 12 75
e 12 77
e 12 97
e 12 98
e 13 17
e 13 18
e 13 19
e 13 20
e 13 21
e 13 22
e 13 24
e 13 26
e 13 28
e 13 30
e 13 35
e 13 39
e 13 41
e 13 44
e 13 45
e 13 53
e 13 62
e 13 66
e 13 67
e 13 68
e 13 80
e 13 94
e 13 96
e 13 98
e 13 100
e 14 17
e 14 18
e 14 19
e 14 20
e 14 21
e 14 22
e 14 24
e 14 25
e 14 27
e 14 30
e 14 31
e 14 33
e 14 34
e 14 35
e 14 37
e 14 39
e 14 48
e 14 49
e 14 50
e 14 57
e 14 62
e 14 68
e 14 72
e 14 77
e 14 80
e 14 87
e 14 88
e 14 92
e 14 100
e 15 17
e 15 19
e 15 20
e 15 21
e 15 23
e 15 25
e 15 26
e 15 27
e 15 30
e 15 38
e 15 44
e 15 46
e 15 52
e 15 63
e 15 77
e 15 79
e 15 83
e 15 85
e 16 17
e 16 18
e 16 21
e 16 22
e 16 23
e 16 24
e 16 25
e 16 27
e 16 29
e 16 32
e 16 33
e 16 36
e 16 37
e 16 39
e 16 42
e 16 44
e 16 49
e 16 65
e 16 68
e 16 87
e 16 92
e 16 93
e 16 95
e 16 96
e 17 18
e 17 19
e 17 20
e 17 21
e 17 22
e 17 23
e 17 24
e 17 25
e 17 26
e 17 27
e 17 28
e 17 29
e 17 30
e 17 31
e 17 32
e 17 33
e 17 34
e 17 35
e 17 36
e 17 37
e 17 38
e 17 39
e 17 40
e 17 41
e 17 42
e 17 43
e 17 44
e 17 45
e 17 46
e 17 51
e 17 53
e 17 54
e 17 55
e 17 57
e 17 58
e 17 59
e 17 64
e 17 66
e 17 70
e 17 72
e 17 74
e 17 75
e 17 77
e 17 80
e 17 81
e 17 84
e 17 85
e 17 86
e 17 87
e 17 92
e 17 93
e 18 19
e 18 20
e 18 22
e 18 23
e 18 24
e 18 25
e 18 26
e 18 28
e 18 29
e 18 30
e 18 32
e 18 34
e 18 37
e 18 38
e 18 40
e 18 43
e 18 44
e 18 45
e 18 46
e 18 47
e 18 48
e 18 49
e 18 51
e 18 52
e 18 54
e 18 56
e 18 61
e 18 63
e 18 65
e 18 74
e 18 75
e 18 76
e 18 79
e 18 80
e 18 83
e 18 85
e 18 88
e 18 90
e 18 98
e 19 20
e 19 21
e 19 22
e 19 24
e 19 25
e 19 26
e 19 27
e 19 28
e 19 29
e 19 30
e 19 31
e 19 33
e 19 35
e 19 36
e 19 38
e 19 39
e 19 41
e 19 46
e 19 51
e 19 52
e 19 56
e 19 58
e 19 64
e 19 65
e 19 66
e 19 67
e 19 69
e 19 70
e 19 71
e 19 73
e 19 74
e 19 75
e 19 80
e 19 88
e 19 90
e 19 95
e 20 21
e 20 22
e 20 23
e 20 24
e 20 25
e 20 28
e 20 29
e 20 33
e 20 35
e 20 36
e 20 37
e 20 39
e 20 44
e 20 47
e 20 51
e 20 52
e 20 53
e 20 55
e 20 60
e 20 62
e 20 63
e 20 66
e 20 67
e 20 69
e 20 71
e 20 72
e 20 76
e 20 82
e 20 86
e 20 92
e 21 22
e 21 23
e 21 24
e 21 25
e 21 26
e 21 27
e 21 28
e 21 29
e 21 30
e 21 32
e 21 33
e 21 34
e 21 36
e 21 37
e 21 38
e 21 39
e 21 42
e 21 44
e 21 48
e 21 53
e 21 56
e 21 57
e 21 59
e 21 60
e 21 68
e 21 71
e 21 72
e 21 74
e 21 79
e 21 82
e 21 83
e 21 89
e 21 91
e 21 92
e 21 100
e 22 23
e 22 24
e 22 25
e 22 26
e 22 27
e 22 28
e 22 29
e 22 30
e 22 31
e 22 34
e 22 35
e 22 36
e 22 37
e 22 38
e 22 39
e 22 43
e 22 44
e 22 46
e 22 47
e 22 48
e 22 53
e 22 55
e 22 60
e 22 63
e 22 64
e 22 65
e 22 66
e 22 68
e 22 76
e 22 77
e 22 78
e 22 81
e 22 82
e 22 84
e 22 85
e 22 86
e 22 87
e 22 88
e 22 90
e 22 97
e 22 98
e 23 24
e 23 25
e 23 26
e 23 27
e 23 29
e 23 30
e 23 31
e 23 32
e 23 34
e 23 36
e 23 37
e 23 38
e 23 39
e 23 40
e 23 42
e 23 45
e 23 46
e 23 48
e 23 54
e 23 55
e 23 56
e 23 58
e 23 59
e 23 60
e 23 62
e 23 65
e 23 67
e 23 83
e 23 84
e 23 86
e 23 87
e 23 96
e 23 99
e 23 100
e 24 27
e 24 31
e 24 35
e 24 36
e 24 38
e 24 40
e 24 41
e 24 43
e 24 45
e 24 50
e 24 53
e 24 62
e 24 65
e 24 66
e 24 85
e 24 86
e 24 91
e 24 96
e 24 99
e 24 100
e 25 26
e 25 27
e 25 28
e 25 29
e 25 30
e 25 31
e 25 32
e 25 33
e 25 34
e 25 35
e 25 37
e 25 38
e 25 39
e 25 40
e 25 41
e 25 42
e 25 45
e 25 47
e 25 48
e 25 53
e 25 56
e 25 57
e 25 58
e 25 63
e 25 67
e 25 69
e 25 71
e 25 72
e 25 75
e 25 79
e 25 84
e 25 85
e 25 88
e 25 90
e 25 91
e 25 93
e 25 94
e 26 27
e 26 28
e 26 29
e 26 31
e 26 33
e 26 35
e 26 37
e 26 38
e 26 40
e 26 41
e 26 46
e 26 51
e 26 52
e 26 54
e 26 55
e 26 61
e 26 62
e 26 63
e 26 64
e 26 68
e 26 72
e 26 76
e 26 78
e 26 79
e 26 84
e 26 90
e 26 94
e 26 95
e 27 28
e 27 29
e 27 30
e 27 32
e 27 33
e 27 34
e 27 35
e 27 41
e 27 42
e 27 44
e 27 45
e 27 46
e 27 49
e 27 50
e 27 51
e 27 52
e 27 53
e 27 56
e 27 57
e 27 60
e 27 62
e 27 67
e 27 72
e 27 73
e 27 76
e 27 78
e 27 85
e 27 87
e 27 89
e 27 92
e 27 94
e 27 99
e 28 29
e 28 31
e 28 34
e 28 36
e 28 40
e 28 42
e 28 43
e 28 44
e 28 45
e 28 46
e 28 50
e 28 54
e 28 55
e 28 58
e 28 59
e 28 70
e 28 71
e 28 72
e 28 76
e 28 78
e 28 80
e 28 81
e 28 83
e 28 84
e 28 87
e 28 95
e 28 96
e 28 98
e 28 99
e 28 100
e 29 31
e 29 32
e 29 35
e 29 36
e 29 39
e 29 40
e 29 43
e 29 45
e 29 47
e 29 51
e 29 52
e 29 53
e 29 59
e 29 62
e 29 66
e 29 67
e 29 69
e 29 70
e 29 72
e 29 73
e 29 75
e 29 81
e 29 83
e 29 85
e 29 90
e 29 91
e 30 31
e 30 32
e 30 33
e 30 34
e 30 35
e 30 42
e 30 44
e 30 46
e 30 47
e 30 48
e 30 49
e 30 50
e 30 53
e 30 55
e 30 56
e 30 57
e 30 58
e 30 59
e 30 60
e 30 61
e 30 62
e 30 63
e 30 64
e 30 65
e 30 66
e 30 67
e 30 68
e 30 72
e 30 73
e 30 76
e 30 82
e 30 87
e 30 88
e 30 90
e 30 93
e 30 95
e 30 96
e 30 97
e 30 98
e 31 32
e 31 36
e 31 37
e 31 38
e 31 43
e 31 44
e 31 45
e 31 47
e 31 48
e 31 49
e 31 51
e 31 54
e 31 60
e 31 61
e 31 63
e 31 64
e 31 70
e 31 72
e 31 73
e 31 80
e 31 81
e 31 84
e 31 85
e 31 87
e 31 90
e 31 91
e 31 98
e 31 100
e 32 34
e 32 36
e 32 37
e 32 39
e 32 42
e 32 47
e 32 48
e 32 49
e 32 51
e 32 54
e 32 56
e 32 60
e 32 61
e 32 62
e 32 68
e 32 70
e 32 72
e 32 74
e 32 77
e 32 84
e 32 86
e 32 89
e 32 90
e 32 95
e 32 98
e 33 34
e 33 35
e 33 36
e 33 38
e 33 40
e 33 41
e 33 42
e 33 45
e 33 48
e 33 52
e 33 56
e 33 58
e 33 60
e 33 62
e 33 67
e 33 75
e 33 79
e 33 82
e 33 85
e 33 91
e 33 92
e 33 94
e 33 96
e 33 98
e 34 36
e 34 37
e 34 46
e 34 48
e 34 49
e 34 50
e 34 55
e 34 58
e 34 59
e 34 61
e 34 65
e 34 67
e 34 69
e 34 71
e 34 74
e 34 88
e 34 97
e 34 99
e 35 37
e 35 41
e 35 43
e 35 44
e 35 45
e 35 50
e 35 54
e 35 55
e 35 57
e 35 67
e 35 74
e 35 75
e 35 91
e 35 94
e 36 41
e 36 43
e 36 49
e 36 51
e 36 56
e 36 61
e 36 62
e 36 66
e 36 77
e 36 80
e 36 88
e 37 39
e 37 40
e 37 42
e 37 46
e 37 50
e 37 52
e 37 57
e 37 66
e 37 68
e 37 71
e 37 72
e 37 74
e 37 85
e 37 87
e 37 88
e 37 89
e 37 93
e 37 94
e 37 98
e 37 100
e 38 40
e 38 43
e 38 51
e 38 53
e 38 55
e 38 57
e 38 61
e 38 63
e 38 68
e 38 75
e 38 78
e 38 79
e 38 84
e 38 85
e 38 89
e 38 95
e 38 99
e 39 40
e 39 41
e 39 45
e 39 47
e 39 49
e 39 52
e 39 59
e 39 63
e 39 68
e 39 75
e 39 79
e 39 90
e 39 94
e 39 95
e 39 96
e 39 100
e 40 43
e 40 44
e 40 48
e 40 50
e 40 52
e 40 54
e 40 55
e 40 56
e 40 58
e 40 62
e 40 64
e 40 66
e 40 71
e 40 74
e 40 77
e 40 84
e 40 86
e 40 88
e 40 94
e 40 100
e 41 43
e 41 47
e 41 49
e 41 57
e 41 58
e 41 60
e 41 64
e 41 65
e 41 69
e 41 71
e 41 73
e 41 74
e 41 83
e 41 93
e 41 98
e 41 100
e 42 59
e 42 61
e 42 73
e 42 75
e 42 88
e 43 47
e 43 49
e 43 55
e 43 65
e 43 70
e 43 71
e 43 78
e 43 79
e 43 80
e 43 90
e 43 98
e 44 48
e 44 50
e 44 51
e 44 53
e 44 57
e 44 61
e 44 64
e 44 67
e 44 70
e 44 72
e 44 73
e 44 80
e 44 83
e 44 85
e 44 86
e 44 89
e 44 92
e 44 97
e 44 98
e 45 46
e 45 47
e 45 49
e 45 52
e 45 54
e 45 59
e 45 61
e 45 62
e 45 65
e 45 68
e 45 69
e 45 79
e 45 96
e 45 97
e 46 47
e 46 52
e 46 63
e 46 78
e 46 91
e 46 97
e 47 58
e 47 69
e 47 73
e 47 82
e 47 90
e 47 94
e 48 51
e 48 52
e 48 56
e 48 57
e 48 62
e 48 71
e 48 75
e 48 81
e 49 50
e 49 51
e 49 52
e 49 54
e 49 58
e 49 65
e 49 69
e 49 85
e 49 92
e 50 54
e 50 55
e 50 57
e 50 58
e 50 59
e 50 61
e 50 70
e 50 71
e 50 76
e 50 82
e 50 91
e 51 55
e 51 61
e 51 63
e 51 71
e 51 72
e 51 75
e 51 76
e 51 90
e 52 58
e 52 60
e 52 62
e 52 68
e 52 69
e 52 70
e 52 74
e 52 77
e 52 80
e 52 81
e 52 90
e 52 96
e 53 56
e 53 57
e 53 58
e 53 71
e 53 73
e 53 74
e 53 78
e 53 79
e 53 84
e 53 86
e 53 89
e 54 75
e 54 80
e 54 91
e 54 93
e 54 99
e 54 100
e 55 56
e 55 63
e 55 76
e 55 82
e 55 87
e 55 89
e 55 93
e 56 57
e 56 59
e 56 60
e 56 78
e 56 81
e 56 99
e 57 68
e 57 79
e 57 91
e 58 83
e 58 87
e 58 100
e 59 64
e 59 70
e 59 71
e 59 74
e 59 77
e 59 93
e 59 98
e 60 63
e 60 64
e 60 70
e 60 82
e 61 66
e 61 69
e 61 70
e 61 77
e 61 88
e 61 91
e 62 64
e 62 69
e 62 73
e 62 82
e 62 86
e 64 66
e 64 68
e 64 74
e 64 90
e 64 96
e 64 99
e 65 69
e 65 70
e 65 73
e 65 74
e 65 89
e 65 95
e 65 97
e 66 67
e 66 68
e 66 76
e 66 77
e 66 79
e 66 83
e 66 84
e 66 88
e 66 89
e 66 92
e 66 94
e 67 83
e 67 89
e 67 93
e 68 82
e 68 86
e 68 89
e 68 99
e 69 73
e 69 74
e 69 77
e 69 78
e 69 79
e 69 91
e 70 81
e 70 87
e 71 73
e 71 78
e 71 80
e 71 92
e 72 75
e 72 76
e 72 80
e 72 81
e 72 95
e 72 97
e 73 79
e 73 81
e 73 83
e 73 97
e 73 99
e 74 80
e 74 83
e 74 86
e 74 90
e 74 93
e 74 97
e 74 99
e 75 78
e 75 83
e 75 84
e 75 99
e 76 97
e 77 81
e 77 82
e 77 84
e 77 87
e 77 92
e 78 93
e 79 87
e 79 93
e 79 98
e 80 82
e 80 85
e 80 88
e 80 91
e 80 93
e 80 95
e 81 94
e 82 83
e 82 86
e 82 95
e 83 84
e 83 92
e 83 100
e 85 86
e 85 88
e 86 93
e 87 92
e 87 94
e 87 95
e 90 92
e 92 96
e 97 99
e 98 100
